ADDGRID = True
EDIFF = 1e-08
EDIFFG = -0.0001
ENCUT = 318
GGA = Ps
IALGO = 38
IBRION = 2
ISIF = 3
ISMEAR = 0
LCHARG = False
LREAL = False
LWAVE = False
NELMIN = 5
NPAR = 4
NSW = 100
PREC = Accurate
SIGMA = 0.02
