Si 
 1.0000000000000000
     0.0000000000000000    2.7172862800000002    2.7172862800000002
     2.7172862800000002    0.0000000000000000    2.7172862800000002
     2.7172862800000002    2.7172862800000002    0.0000000000000000
 Si 
   2
Cartesian
  2.7172862799999997  2.7172862799999997  2.7172862799999997
  4.0759294200000005  4.0759294200000005  4.0759294200000005
