Si 
 1.0000000000000000
     0.0000000000000000    2.7172687099999999    2.7172687099999999
     2.7172687099999999    0.0000000000000000    2.7172687099999999
     2.7172687099999999    2.7172687099999999    0.0000000000000000
 Si 
   2
Cartesian
  2.7172687099999999  2.7172687099999999  2.7172687099999999
  4.0759030650000003  4.0759030650000003  4.0759030650000003
