Ag Bi  S 
 1.0000000000000000
     7.9799615202738829    0.0000000000000000    0.0000000000000000
    -3.9899807601369415    6.9108493977794723    0.0000000000000000
     0.0000000000000000    0.0000000000000000   18.4843817467976805
 Ag Bi S
  12  12  24
Direct
  0.0164719911783849  0.0120583344444041  0.5442155860931870
  0.1831386578450515  0.8453916677777374  0.2108822527598533
  0.5164719911783848  0.5120583344444042  0.5442155860931870
  0.3498053245117182  0.6787250011110708  0.8775489194265200
  0.0164719911783849  0.5120583344444042  0.5442155860931870
  0.1831386578450516  0.3453916677777375  0.2108822527598533
  0.6831386578450516  0.3453916677777375  0.2108822527598533
  0.8498053245117182  0.6787250011110708  0.8775489194265200
  0.3498053245117181  0.1787250011110708  0.8775489194265200
  0.6831386578450516  0.8453916677777374  0.2108822527598533
  0.8498053245117181  0.1787250011110708  0.8775489194265200
  0.5164719911783849  0.0120583344444041  0.5442155860931870
  0.0164719911783848  0.0120583344444041  0.0442155860931868
  0.3498053245117181  0.1787250011110707  0.3775489194265200
  0.5164719911783848  0.5120583344444041  0.0442155860931868
  0.6831386578450516  0.3453916677777375  0.7108822527598536
  0.1831386578450515  0.8453916677777374  0.7108822527598536
  0.8498053245117181  0.1787250011110707  0.3775489194265200
  0.5164719911783847  0.0120583344444041  0.0442155860931868
  0.0164719911783848  0.5120583344444041  0.0442155860931868
  0.6831386578450516  0.8453916677777374  0.7108822527598536
  0.8498053245117181  0.6787250011110707  0.3775489194265200
  0.1831386578450515  0.3453916677777375  0.7108822527598536
  0.3498053245117181  0.6787250011110707  0.3775489194265200
  0.6831386578450516  0.8453916677777374  0.4662716569039554
  0.5164719911783849  0.0120583344444041  0.2888261819490849
  0.8498053245117182  0.6787250011110708  0.6221595152824184
  0.5164719911783848  0.5120583344444042  0.7996049902372888
  0.6831386578450516  0.8453916677777376  0.9554928486157515
  0.8498053245117181  0.1787250011110708  0.1329383235706219
  0.6831386578450516  0.3453916677777376  0.9554928486157515
  0.0164719911783849  0.5120583344444042  0.2888261819490849
  0.8498053245117181  0.1787250011110708  0.6221595152824184
  0.6831386578450516  0.3453916677777375  0.4662716569039554
  0.8498053245117182  0.6787250011110708  0.1329383235706219
  0.3498053245117182  0.6787250011110708  0.1329383235706219
  0.1831386578450516  0.8453916677777376  0.9554928486157515
  0.0164719911783849  0.5120583344444042  0.7996049902372888
  0.3498053245117182  0.6787250011110708  0.6221595152824184
  0.1831386578450515  0.8453916677777374  0.4662716569039554
  0.0164719911783849  0.0120583344444041  0.2888261819490849
  0.3498053245117181  0.1787250011110708  0.1329383235706219
  0.1831386578450516  0.3453916677777376  0.9554928486157515
  0.0164719911783849  0.0120583344444041  0.7996049902372888
  0.3498053245117182  0.1787250011110708  0.6221595152824184
  0.1831386578450515  0.3453916677777375  0.4662716569039554
  0.5164719911783849  0.0120583344444041  0.7996049902372888
  0.5164719911783848  0.5120583344444042  0.2888261819490849
