ADDGRID = True
EDIFF = 1e-08
EDIFFG = -1e-06
ENCUT = 341
GGA = Ps
IALGO = 38
IBRION = 2
ISIF = 3
ISMEAR = 0
LCHARG = False
LREAL = False
LWAVE = False
NELMIN = 5
NPAR = 8
NSW = 500
PREC = Accurate
SIGMA = 0.02
