Na Cl
 1.0000000000000000
     0.0000000000000000    2.7997796400000001    2.7997796400000001
     2.7997796400000001    0.0000000000000000    2.7997796400000001
     2.7997796400000001    2.7997796400000001    0.0000000000000000
 Na  Cl 
   1   1
Direct
  0.0000000000000000  0.0000000000000000 -0.0000000000000000
  0.5000000000000000  0.5000000000000000  0.5000000000000000
