Na Cl
 1.0000000000000000
     5.5995592800000002    0.0000000000000000    0.0000000000000000
     0.0000000000000000    5.5995592800000002    0.0000000000000000
     0.0000000000000000    0.0000000000000000    5.5995592800000002
 Na  Cl 
   4   4
Direct
  0.0000000000000000  0.0000000000000000  0.0000000000000000
  0.0000000000000000  0.5000000000000000  0.5000000000000000
  0.5000000000000000  0.0000000000000000  0.5000000000000000
  0.5000000000000000  0.5000000000000000  0.0000000000000000
  0.5000000000000000  0.0000000000000000  0.0000000000000000
  0.5000000000000000  0.5000000000000000  0.5000000000000000
  0.0000000000000000  0.0000000000000000  0.5000000000000000
  0.0000000000000000  0.5000000000000000  0.0000000000000000
