Si 
 1.0000000000000000
    10.9334549032173509    0.0000000000000000    0.0000000000000000
     0.0000000000000000   10.9334549032173509    0.0000000000000000
     0.0000000000000000    0.0000000000000000   10.9334549032173509
  Si
  64
Direct
  0.0000000000000000  0.0000000000000000  0.0000000000000000
  0.0000000000000000  0.2500000000000000  0.2500000000000000
  0.2500000000000000  0.0000000000000000  0.2500000000000000
  0.2500000000000000  0.2500000000000000  0.0000000000000000
  0.1250000000000000  0.3750000000000000  0.3750000000000000
  0.3750000000000000  0.1250000000000000  0.3750000000000000
  0.3750000000000000  0.3750000000000000  0.1250000000000000
  0.1250000000000000  0.1250000000000000  0.1250000000000000
  0.0000000000000000  0.0000000000000000  0.4999999999999999
  0.0000000000000000  0.2500000000000000  0.7500000000000000
  0.2500000000000000  0.0000000000000000  0.7500000000000000
  0.2500000000000000  0.2500000000000000  0.4999999999999999
  0.1250000000000000  0.3750000000000000  0.8750000000000000
  0.3750000000000000  0.1250000000000000  0.8750000000000000
  0.3750000000000000  0.3750000000000000  0.6250000000000000
  0.1250000000000000  0.1250000000000000  0.6250000000000000
  0.0000000000000000  0.4999999999999999  0.0000000000000000
  0.0000000000000000  0.7500000000000000  0.2500000000000000
  0.2500000000000000  0.4999999999999999  0.2500000000000000
  0.2500000000000000  0.7500000000000000  0.0000000000000000
  0.1250000000000000  0.8750000000000000  0.3750000000000000
  0.3750000000000000  0.6250000000000000  0.3750000000000000
  0.3750000000000000  0.8750000000000000  0.1250000000000000
  0.1250000000000000  0.6250000000000000  0.1250000000000000
  0.0000000000000000  0.4999999999999999  0.4999999999999999
  0.0000000000000000  0.7500000000000000  0.7500000000000000
  0.2500000000000000  0.4999999999999999  0.7500000000000000
  0.2500000000000000  0.7500000000000000  0.4999999999999999
  0.1250000000000000  0.8750000000000000  0.8750000000000000
  0.3750000000000000  0.6250000000000000  0.8750000000000000
  0.3750000000000000  0.8750000000000000  0.6250000000000000
  0.1250000000000000  0.6250000000000000  0.6250000000000000
  0.4999999999999999  0.0000000000000000  0.0000000000000000
  0.4999999999999999  0.2500000000000000  0.2500000000000000
  0.7500000000000000  0.0000000000000000  0.2500000000000000
  0.7500000000000000  0.2500000000000000  0.0000000000000000
  0.6250000000000000  0.3750000000000000  0.3750000000000000
  0.8750000000000000  0.1250000000000000  0.3750000000000000
  0.8750000000000000  0.3750000000000000  0.1250000000000000
  0.6250000000000000  0.1250000000000000  0.1250000000000000
  0.4999999999999999  0.0000000000000000  0.4999999999999999
  0.4999999999999999  0.2500000000000000  0.7500000000000000
  0.7500000000000000  0.0000000000000000  0.7500000000000000
  0.7500000000000000  0.2500000000000000  0.4999999999999999
  0.6250000000000000  0.3750000000000000  0.8750000000000000
  0.8750000000000000  0.1250000000000000  0.8750000000000000
  0.8750000000000000  0.3750000000000000  0.6250000000000000
  0.6250000000000000  0.1250000000000000  0.6250000000000000
  0.4999999999999999  0.4999999999999999  0.0000000000000000
  0.4999999999999999  0.7500000000000000  0.2500000000000000
  0.7500000000000000  0.4999999999999999  0.2500000000000000
  0.7500000000000000  0.7500000000000000  0.0000000000000000
  0.6250000000000000  0.8750000000000000  0.3750000000000000
  0.8750000000000000  0.6250000000000000  0.3750000000000000
  0.8750000000000000  0.8750000000000000  0.1250000000000000
  0.6250000000000000  0.6250000000000000  0.1250000000000000
  0.4999999999999999  0.4999999999999999  0.4999999999999999
  0.4999999999999999  0.7500000000000000  0.7500000000000000
  0.7500000000000000  0.4999999999999999  0.7500000000000000
  0.7500000000000000  0.7500000000000000  0.4999999999999999
  0.6250000000000000  0.8750000000000000  0.8750000000000000
  0.8750000000000000  0.6250000000000000  0.8750000000000000
  0.8750000000000000  0.8750000000000000  0.6250000000000000
  0.6250000000000000  0.6250000000000000  0.6250000000000000
