Na Cl
 1.0000000000000000
    11.2040023600000005    0.0000000000000000    0.0000000000000000
     0.0000000000000000   11.2040023600000005    0.0000000000000000
     0.0000000000000000    0.0000000000000000   11.2040023600000005
 Na  Cl 
  32  32
Cartesian
  0.0000000000000000  0.0000000000000000  0.0000000000000000
  2.8010005900000001  2.8010005900000001  0.0000000000000000
  2.8010005900000001  0.0000000000000000  2.8010005900000001
  0.0000000000000000  2.8010005900000001  2.8010005900000001
  0.0000000000000000  0.0000000000000000  5.6020011800000002
  2.8010005900000001  2.8010005900000001  5.6020011800000002
  2.8010005900000001  0.0000000000000000  8.4030017699999995
  0.0000000000000000  2.8010005900000001  8.4030017699999995
  0.0000000000000000  5.6020011800000002  0.0000000000000000
  2.8010005900000001  8.4030017699999995  0.0000000000000000
  2.8010005900000001  5.6020011800000002  2.8010005900000001
  0.0000000000000000  8.4030017699999995  2.8010005900000001
  0.0000000000000000  5.6020011800000002  5.6020011800000002
  2.8010005900000001  8.4030017699999995  5.6020011800000002
  2.8010005900000001  5.6020011800000002  8.4030017699999995
  0.0000000000000000  8.4030017699999995  8.4030017699999995
  5.6020011800000002  0.0000000000000000  0.0000000000000000
  8.4030017699999995  2.8010005900000001  0.0000000000000000
  8.4030017699999995  0.0000000000000000  2.8010005900000001
  5.6020011800000002  2.8010005900000001  2.8010005900000001
  5.6020011800000002  0.0000000000000000  5.6020011800000002
  8.4030017699999995  2.8010005900000001  5.6020011800000002
  8.4030017699999995  0.0000000000000000  8.4030017699999995
  5.6020011800000002  2.8010005900000001  8.4030017699999995
  5.6020011800000002  5.6020011800000002  0.0000000000000000
  8.4030017699999995  8.4030017699999995  0.0000000000000000
  8.4030017699999995  5.6020011800000002  2.8010005900000001
  5.6020011800000002  8.4030017699999995  2.8010005900000001
  5.6020011800000002  5.6020011800000002  5.6020011800000002
  8.4030017699999995  8.4030017699999995  5.6020011800000002
  8.4030017699999995  5.6020011800000002  8.4030017699999995
  5.6020011800000002  8.4030017699999995  8.4030017699999995
  2.7710005900000003  2.8010005900000001  2.8010005900000001
  0.0300000000000000  0.0000000000000000  2.8010005900000001
  0.0000000000000000  2.8010005900000001  0.0000000000000000
  2.8010005900000001  0.0000000000000000  0.0000000000000000
  2.8010005900000001  2.8010005900000001  8.4030017699999995
  0.0000000000000000  0.0000000000000000  8.4030017699999995
  0.0000000000000000  2.8010005900000001  5.6020011800000002
  2.8010005900000001  0.0000000000000000  5.6020011800000002
  2.8010005900000001  8.4030017699999995  2.8010005900000001
  0.0000000000000000  5.6020011800000002  2.8010005900000001
  0.0000000000000000  8.4030017699999995  0.0000000000000000
  2.8010005900000001  5.6020011800000002  0.0000000000000000
  2.8010005900000001  8.4030017699999995  8.4030017699999995
  0.0000000000000000  5.6020011800000002  8.4030017699999995
  0.0000000000000000  8.4030017699999995  5.6020011800000002
  2.8010005900000001  5.6020011800000002  5.6020011800000002
  8.4030017699999995  2.8010005900000001  2.8010005900000001
  5.6020011800000002  0.0000000000000000  2.8010005900000001
  5.6020011800000002  2.8010005900000001  0.0000000000000000
  8.4030017699999995  0.0000000000000000  0.0000000000000000
  8.4030017699999995  2.8010005900000001  8.4030017699999995
  5.6020011800000002  0.0000000000000000  8.4030017699999995
  5.6020011800000002  2.8010005900000001  5.6020011800000002
  8.4030017699999995  0.0000000000000000  5.6020011800000002
  8.4030017699999995  8.4030017699999995  2.8010005900000001
  5.6020011800000002  5.6020011800000002  2.8010005900000001
  5.6020011800000002  8.4030017699999995  0.0000000000000000
  8.4030017699999995  5.6020011800000002  0.0000000000000000
  8.4030017699999995  8.4030017699999995  8.4030017699999995
  5.6020011800000002  5.6020011800000002  8.4030017699999995
  5.6020011800000002  8.4030017699999995  5.6020011800000002
  8.4030017699999995  5.6020011800000002  5.6020011800000002
