 O  K Ta                                
   1.00000000000000     
     3.9900425985760357    0.0000000000000000   -0.0000000000000000
     0.0000000000000000    3.9900425985760357    0.0000000000000000
     0.0000000000000000    0.0000000000000000    3.9900425985760357
   O    K    Ta
     3     1     1
Direct
  0.0000000000000000  0.5000000000000000  0.0000000000000000
  0.0000000000000000 -0.0000000000000000  0.5000000000000000
  0.5000000000000000  0.0000000000000000  0.0000000000000000
  0.5000000000000000  0.5000000000000000  0.5000000000000000
 -0.0000000000000000 -0.0000000000000000 -0.0000000000000000
 
  0.00000000E+00  0.00000000E+00  0.00000000E+00
  0.00000000E+00  0.00000000E+00  0.00000000E+00
  0.00000000E+00  0.00000000E+00  0.00000000E+00
  0.00000000E+00  0.00000000E+00  0.00000000E+00
  0.00000000E+00  0.00000000E+00  0.00000000E+00
