ADDGRID = True
EDIFF = 1e-08
EDIFFG = -1e-08
ENCUT = 520.0
GGA = Ps
IALGO = 38
IBRION = 2
ISIF = 3
ISMEAR = 0
LCHARG = False
LREAL = False
LWAVE = False
NELMIN = 5
NPAR = 2
NSW = 20
PREC = Accurate
SIGMA = 0.01
