Si 
 1.0000000000000000
     5.4345725600000003    0.0000000000000000    0.0000000000000000
     0.0000000000000000    5.4345725600000003    0.0000000000000000
     0.0000000000000000    0.0000000000000000    5.4345725600000003
 Si 
   8
Cartesian
  2.7172862799999997  0.0000000000000000  0.0000000000000000
  1.3586431399999999  1.3586431399999999  4.0759294200000005
  2.7172862799999997  2.7172862799999997  2.7172862799999997
  1.3586431399999999  4.0759294200000005  1.3586431399999999
  0.0000000000000000  0.0000000000000000  2.7172862799999997
  4.0759294200000005  1.3586431399999999  1.3586431399999999
  0.0000000000000000  2.7172862799999997  0.0000000000000000
  4.0759294200000005  4.0759294200000005  4.0759294200000005
