Na Cl                                   
   1.00000000000000     
     0.0000000000000000    2.8010005929123500    2.8010005929123500
     2.8010005929123500    0.0000000000000000    2.8010005929123500
     2.8010005929123500    2.8010005929123500    0.0000000000000000
   Na   Cl
     1     1
Direct
  0.0000000000000000  0.0000000000000000  0.0000000000000000
  0.5000000000000000  0.5000000000000000  0.5000000000000000
 
  0.00000000E+00  0.00000000E+00  0.00000000E+00
  0.00000000E+00  0.00000000E+00  0.00000000E+00
