Si 
 1.0000000000000000
     5.4345374200000007    0.0000000000000000    0.0000000000000000
     0.0000000000000000    5.4345374200000007    0.0000000000000000
     0.0000000000000000    0.0000000000000000    5.4345374200000007
 Si 
   8
Cartesian
  2.7172687099999999  0.0000000000000000  0.0000000000000000
  1.3586343550000000  1.3586343550000000  4.0759030650000003
  2.7172687099999999  2.7172687099999999  2.7172687099999999
  1.3586343550000000  4.0759030650000003  1.3586343550000000
  0.0000000000000000  0.0000000000000000  2.7172687099999999
  4.0759030650000003  1.3586343550000000  1.3586343550000000
  0.0000000000000000  2.7172687099999999  0.0000000000000000
  4.0759030650000003  4.0759030650000003  4.0759030650000003
