ENCUT = 318.948500
SIGMA = 0.020000
EDIFF = 1.00e-08
EDIFFG = -1.00e-06
GGA = PS
PREC = Accurate
IALGO = 38
IBRION = 2
ISMEAR = 0
NELMIN = 5
ADDGRID = .TRUE.
LCHARG = .FALSE.
LWAVE = .FALSE.
LREAL = .FALSE.
