 O Ga Sm                                
   1.00000000000000     
    -6.2038315270633921    6.2038315270633921    6.2038315270633921
     6.2038315270633921   -6.2038315270633921    6.2038315270633921
     6.2038315270633921    6.2038315270633921   -6.2038315270633921
   O    Ga   Sm
    48    20    12
Direct
  0.4743017669878954  0.5947296779930362  0.1779245725940646
  0.3220754274059354  0.9168051053989715  0.2963771943938308
  0.5947296779930362  0.1779245725940646  0.4743017669878954
  0.5831948946010285  0.9052703220069638  0.3795720889948592
  0.1204279110051408  0.5947296779930362  0.9168051053989715
  0.1779245725940646  0.4743017669878954  0.5947296779930362
  0.1779245725940646  0.2036228056061694  0.5831948946010285
  0.2036228056061694  0.1204279110051408  0.0256982330121047
  0.3795720889948592  0.2963771943938308  0.4743017669878954
  0.9168051053989715  0.1204279110051408  0.5947296779930362
  0.2963771943938308  0.4743017669878954  0.3795720889948592
  0.2036228056061694  0.5831948946010285  0.1779245725940646
  0.4743017669878954  0.3795720889948592  0.2963771943938308
  0.9052703220069638  0.0256982330121047  0.3220754274059354
  0.0256982330121047  0.3220754274059354  0.9052703220069638
  0.5947296779930362  0.9168051053989715  0.1204279110051408
  0.5831948946010285  0.1779245725940646  0.2036228056061694
  0.0256982330121047  0.2036228056061694  0.1204279110051408
  0.9168051053989715  0.2963771943938308  0.3220754274059354
  0.6204279110051408  0.7036228056061692  0.5256982330121045
  0.1204279110051408  0.0256982330121047  0.2036228056061694
  0.2963771943938308  0.3220754274059354  0.9168051053989715
  0.9052703220069638  0.3795720889948592  0.5831948946010285
  0.3220754274059354  0.9052703220069638  0.0256982330121047
  0.5256982330121045  0.4052703220069639  0.8220754274059353
  0.6779245725940647  0.0831948946010284  0.7036228056061692
  0.4052703220069639  0.8220754274059353  0.5256982330121045
  0.4168051053989715  0.0947296779930362  0.6204279110051408
  0.8795720889948592  0.4052703220069639  0.0831948946010284
  0.8220754274059353  0.5256982330121045  0.4052703220069639
  0.8220754274059353  0.7963771943938308  0.4168051053989715
  0.7963771943938308  0.8795720889948592  0.9743017669878955
  0.6779245725940647  0.0947296779930362  0.9743017669878955
  0.0947296779930362  0.6204279110051408  0.4168051053989715
  0.7036228056061692  0.6779245725940647  0.0831948946010284
  0.6204279110051408  0.4168051053989715  0.0947296779930362
  0.8795720889948592  0.9743017669878955  0.7963771943938308
  0.0831948946010284  0.7036228056061692  0.6779245725940647
  0.9743017669878955  0.7963771943938308  0.8795720889948592
  0.4168051053989715  0.8220754274059353  0.7963771943938308
  0.4052703220069639  0.0831948946010284  0.8795720889948592
  0.9743017669878955  0.6779245725940647  0.0947296779930362
  0.0947296779930362  0.9743017669878955  0.6779245725940647
  0.5256982330121045  0.6204279110051408  0.7036228056061692
  0.7963771943938308  0.4168051053989715  0.8220754274059353
  0.7036228056061692  0.5256982330121045  0.6204279110051408
  0.0831948946010284  0.8795720889948592  0.4052703220069639
  0.3795720889948592  0.5831948946010285  0.9052703220069638
  0.1250000000000000  0.7500000000000000  0.8750000000000000
  0.8750000000000000  0.2500000000000000  0.1250000000000000
  0.2500000000000000  0.1250000000000000  0.8750000000000000
  0.3750000000000000  0.6250000000000000  0.7500000000000000
  0.7500000000000000  0.3750000000000000  0.6250000000000000
  0.1250000000000000  0.8750000000000000  0.2500000000000000
  0.3750000000000000  0.2500000000000000  0.6250000000000000
  0.6250000000000000  0.3750000000000000  0.2500000000000000
  0.8750000000000000  0.1250000000000000  0.7500000000000000
  0.2500000000000000  0.6250000000000000  0.3750000000000000
  0.7500000000000000  0.8750000000000000  0.1250000000000000
  0.6250000000000000  0.7500000000000000  0.3750000000000000
  0.5000000000000000  0.5000000000000000  0.0000000000000000
  0.5000000000000000  0.0000000000000000  0.0000000000000000
  0.0000000000000000  0.0000000000000000  0.5000000000000000
  0.5000000000000000  0.5000000000000000  0.5000000000000000
  0.0000000000000000  0.5000000000000000  0.5000000000000000
  0.0000000000000000  0.0000000000000000  0.0000000000000000
  0.5000000000000000  0.0000000000000000  0.5000000000000000
  0.0000000000000000  0.5000000000000000  0.0000000000000000
  0.8750000000000000  0.7500000000000000  0.6250000000000000
  0.6250000000000000  0.8750000000000000  0.7500000000000000
  0.8750000000000000  0.6250000000000000  0.2500000000000000
  0.7500000000000000  0.6250000000000000  0.8750000000000000
  0.2500000000000000  0.8750000000000000  0.6250000000000000
  0.6250000000000000  0.2500000000000000  0.8750000000000000
  0.1250000000000000  0.2500000000000000  0.3750000000000000
  0.3750000000000000  0.1250000000000000  0.2500000000000000
  0.1250000000000000  0.3750000000000000  0.7500000000000000
  0.2500000000000000  0.3750000000000000  0.1250000000000000
  0.7500000000000000  0.1250000000000000  0.3750000000000000
  0.3750000000000000  0.7500000000000000  0.1250000000000000
 
  0.00000000E+00  0.00000000E+00  0.00000000E+00
  0.00000000E+00  0.00000000E+00  0.00000000E+00
  0.00000000E+00  0.00000000E+00  0.00000000E+00
  0.00000000E+00  0.00000000E+00  0.00000000E+00
  0.00000000E+00  0.00000000E+00  0.00000000E+00
  0.00000000E+00  0.00000000E+00  0.00000000E+00
  0.00000000E+00  0.00000000E+00  0.00000000E+00
  0.00000000E+00  0.00000000E+00  0.00000000E+00
  0.00000000E+00  0.00000000E+00  0.00000000E+00
  0.00000000E+00  0.00000000E+00  0.00000000E+00
  0.00000000E+00  0.00000000E+00  0.00000000E+00
  0.00000000E+00  0.00000000E+00  0.00000000E+00
  0.00000000E+00  0.00000000E+00  0.00000000E+00
  0.00000000E+00  0.00000000E+00  0.00000000E+00
  0.00000000E+00  0.00000000E+00  0.00000000E+00
  0.00000000E+00  0.00000000E+00  0.00000000E+00
  0.00000000E+00  0.00000000E+00  0.00000000E+00
  0.00000000E+00  0.00000000E+00  0.00000000E+00
  0.00000000E+00  0.00000000E+00  0.00000000E+00
  0.00000000E+00  0.00000000E+00  0.00000000E+00
  0.00000000E+00  0.00000000E+00  0.00000000E+00
  0.00000000E+00  0.00000000E+00  0.00000000E+00
  0.00000000E+00  0.00000000E+00  0.00000000E+00
  0.00000000E+00  0.00000000E+00  0.00000000E+00
  0.00000000E+00  0.00000000E+00  0.00000000E+00
  0.00000000E+00  0.00000000E+00  0.00000000E+00
  0.00000000E+00  0.00000000E+00  0.00000000E+00
  0.00000000E+00  0.00000000E+00  0.00000000E+00
  0.00000000E+00  0.00000000E+00  0.00000000E+00
  0.00000000E+00  0.00000000E+00  0.00000000E+00
  0.00000000E+00  0.00000000E+00  0.00000000E+00
  0.00000000E+00  0.00000000E+00  0.00000000E+00
  0.00000000E+00  0.00000000E+00  0.00000000E+00
  0.00000000E+00  0.00000000E+00  0.00000000E+00
  0.00000000E+00  0.00000000E+00  0.00000000E+00
  0.00000000E+00  0.00000000E+00  0.00000000E+00
  0.00000000E+00  0.00000000E+00  0.00000000E+00
  0.00000000E+00  0.00000000E+00  0.00000000E+00
  0.00000000E+00  0.00000000E+00  0.00000000E+00
  0.00000000E+00  0.00000000E+00  0.00000000E+00
  0.00000000E+00  0.00000000E+00  0.00000000E+00
  0.00000000E+00  0.00000000E+00  0.00000000E+00
  0.00000000E+00  0.00000000E+00  0.00000000E+00
  0.00000000E+00  0.00000000E+00  0.00000000E+00
  0.00000000E+00  0.00000000E+00  0.00000000E+00
  0.00000000E+00  0.00000000E+00  0.00000000E+00
  0.00000000E+00  0.00000000E+00  0.00000000E+00
  0.00000000E+00  0.00000000E+00  0.00000000E+00
  0.00000000E+00  0.00000000E+00  0.00000000E+00
  0.00000000E+00  0.00000000E+00  0.00000000E+00
  0.00000000E+00  0.00000000E+00  0.00000000E+00
  0.00000000E+00  0.00000000E+00  0.00000000E+00
  0.00000000E+00  0.00000000E+00  0.00000000E+00
  0.00000000E+00  0.00000000E+00  0.00000000E+00
  0.00000000E+00  0.00000000E+00  0.00000000E+00
  0.00000000E+00  0.00000000E+00  0.00000000E+00
  0.00000000E+00  0.00000000E+00  0.00000000E+00
  0.00000000E+00  0.00000000E+00  0.00000000E+00
  0.00000000E+00  0.00000000E+00  0.00000000E+00
  0.00000000E+00  0.00000000E+00  0.00000000E+00
  0.00000000E+00  0.00000000E+00  0.00000000E+00
  0.00000000E+00  0.00000000E+00  0.00000000E+00
  0.00000000E+00  0.00000000E+00  0.00000000E+00
  0.00000000E+00  0.00000000E+00  0.00000000E+00
  0.00000000E+00  0.00000000E+00  0.00000000E+00
  0.00000000E+00  0.00000000E+00  0.00000000E+00
  0.00000000E+00  0.00000000E+00  0.00000000E+00
  0.00000000E+00  0.00000000E+00  0.00000000E+00
  0.00000000E+00  0.00000000E+00  0.00000000E+00
  0.00000000E+00  0.00000000E+00  0.00000000E+00
  0.00000000E+00  0.00000000E+00  0.00000000E+00
  0.00000000E+00  0.00000000E+00  0.00000000E+00
  0.00000000E+00  0.00000000E+00  0.00000000E+00
  0.00000000E+00  0.00000000E+00  0.00000000E+00
  0.00000000E+00  0.00000000E+00  0.00000000E+00
  0.00000000E+00  0.00000000E+00  0.00000000E+00
  0.00000000E+00  0.00000000E+00  0.00000000E+00
  0.00000000E+00  0.00000000E+00  0.00000000E+00
  0.00000000E+00  0.00000000E+00  0.00000000E+00
  0.00000000E+00  0.00000000E+00  0.00000000E+00
