 O Re 
 1.0000000000000000
     3.7655667799999994    0.0000000000000000    0.0000000000000000
     0.0000000000000000    3.7655667799999994    0.0000000000000000
     0.0000000000000000    0.0000000000000000    3.7655667799999994
 O   Re 
   3   1
Cartesian
  1.8827833899999997  0.0000000000000000  0.0000000000000000
  0.0000000000000000  0.0000000000000000  1.8827833899999997
  0.0000000000000000  1.8827833899999997  0.0000000000000000
  0.0000000000000000  0.0000000000000000  0.0000000000000000
