Si 
 1.0000000000000000
    10.8691451199999989   -0.0000000000000003   -0.0000000000000003
    -0.0000000000000003   10.8691451199999989    0.0000000000000003
     0.0000000000000003    0.0000000000000003   10.8691451199999989
 Si 
  64
Cartesian
  2.7072862799999995  2.7172862799999997  2.7172862799999997
  8.1518588399999992  2.7172862799999993  2.7172862799999997
  2.7172862799999988  8.1518588399999992  2.7172862799999997
  8.1518588399999992  8.1518588399999992  2.7172862799999997
  2.7172862799999997  2.7172862800000002  8.1518588399999992
  8.1518588399999992  2.7172862799999997  8.1518588399999992
  2.7172862799999993  8.1518588399999992  8.1518588399999992
  8.1518588399999992  8.1518588399999992  8.1518588399999992
  2.7172862799999993 -0.0000000000000001 -0.0000000000000001
  8.1518588399999992 -0.0000000000000002 -0.0000000000000002
  2.7172862799999993  5.4345725599999994  0.0000000000000001
  8.1518588399999992  5.4345725599999994 -0.0000000000000001
  2.7172862799999993  0.0000000000000001  5.4345725599999994
  8.1518588399999992 -0.0000000000000001  5.4345725599999994
  2.7172862799999993  5.4345725599999994  5.4345725599999994
  8.1518588399999992  5.4345725599999994  5.4345725599999994
  0.0099999999999999  2.7172862799999997  0.0000000000000001
  5.4345725599999994  2.7172862799999997 -0.0000000000000001
 -0.0000000000000002  8.1518588399999992  0.0000000000000002
  5.4345725599999994  8.1518588399999992  0.0000000000000001
  0.0000000000000001  2.7172862799999997  5.4345725599999994
  5.4345725599999994  2.7172862799999997  5.4345725599999994
 -0.0000000000000001  8.1518588399999992  5.4345725599999994
  5.4345725599999994  8.1518588399999992  5.4345725599999994
  0.0000000000000001  0.0000000000000001  2.7172862799999997
  5.4345725599999994 -0.0000000000000001  2.7172862799999997
 -0.0000000000000001  5.4345725599999994  2.7172862799999997
  5.4345725599999994  5.4345725599999994  2.7172862799999997
  0.0000000000000002  0.0000000000000002  8.1518588399999992
  5.4345725599999994  0.0000000000000001  8.1518588399999992
  0.0000000000000001  5.4345725599999994  8.1518588399999992
  5.4345725599999994  5.4345725599999994  8.1518588399999992
  4.0759294199999996  4.0759294199999996  4.0759294200000005
  9.5105019799999990  4.0759294199999996  4.0759294200000005
  4.0759294199999996  9.5105019799999990  4.0759294200000014
  9.5105019799999990  9.5105019799999990  4.0759294200000005
  4.0759294199999996  4.0759294199999996  9.5105019800000008
  9.5105019799999990  4.0759294199999996  9.5105019800000008
  4.0759294199999996  9.5105019799999990  9.5105019800000008
  9.5105019799999990  9.5105019799999990  9.5105019800000008
  4.0759294199999996  1.3586431399999996  1.3586431399999999
  9.5105019799999990  1.3586431399999996  1.3586431399999996
  4.0759294199999996  6.7932156999999993  1.3586431399999999
  9.5105019799999990  6.7932156999999993  1.3586431399999999
  4.0759294199999996  1.3586431399999999  6.7932156999999993
  9.5105019799999990  1.3586431399999999  6.7932156999999993
  4.0759294199999996  6.7932156999999993  6.7932156999999993
  9.5105019799999990  6.7932156999999993  6.7932156999999993
  1.3586431399999996  4.0759294199999996  1.3586431400000012
  6.7932156999999993  4.0759294199999996  1.3586431400000010
  1.3586431399999996  9.5105019799999990  1.3586431400000012
  6.7932156999999993  9.5105019799999990  1.3586431400000012
  1.3586431399999999  4.0759294199999996  6.7932157000000002
  6.7932156999999993  4.0759294199999996  6.7932157000000002
  1.3586431399999999  9.5105019799999990  6.7932157000000011
  6.7932156999999993  9.5105019799999990  6.7932157000000002
  1.3586431400000001  1.3586431400000001  4.0759294199999996
  6.7932156999999993  1.3586431399999999  4.0759294199999996
  1.3586431399999999  6.7932156999999993  4.0759294199999996
  6.7932156999999993  6.7932156999999993  4.0759294199999996
  1.3586431400000001  1.3586431400000001  9.5105019799999990
  6.7932156999999993  1.3586431399999999  9.5105019799999990
  1.3586431399999999  6.7932156999999993  9.5105019799999990
  6.7932156999999993  6.7932156999999993  9.5105019799999990
