 O  K Ta 
 1.0000000000000000
    11.9701278000000002    0.0000000000000000    0.0000000000000000
     0.0000000000000000   11.9701278000000002    0.0000000000000000
     0.0000000000000000    0.0000000000000000   11.9701278000000002
 O   K   Ta 
  81  27  27
Cartesian
  0.0000000000000000  1.9950212999999999  0.0000000000000000
  0.0000000000000000  0.0000000000000000  1.9950212999999999
  1.9950212999999999  0.0000000000000000  0.0000000000000000
  0.0000000000000000  1.9950212999999999  3.9900425999999998
  0.0000000000000000  0.0000000000000000  5.9850638999999992
  1.9950212999999999  0.0000000000000000  3.9900425999999998
  0.0000000000000000  1.9950212999999999  7.9800851999999995
  0.0000000000000000  0.0000000000000000  9.9751064999999990
  1.9950212999999999  0.0000000000000000  7.9800851999999995
  0.0000000000000000  5.9850638999999992  0.0000000000000000
  0.0000000000000000  3.9900425999999998  1.9950212999999999
  1.9950212999999999  3.9900425999999998  0.0000000000000000
  0.0000000000000000  5.9850638999999992  3.9900425999999998
  0.0000000000000000  3.9900425999999998  5.9850638999999992
  1.9950212999999999  3.9900425999999998  3.9900425999999998
  0.0000000000000000  5.9850638999999992  7.9800851999999995
  0.0000000000000000  3.9900425999999998  9.9751064999999990
  1.9950212999999999  3.9900425999999998  7.9800851999999995
  0.0000000000000000  9.9751064999999990  0.0000000000000000
  0.0000000000000000  7.9800851999999995  1.9950212999999999
  1.9950212999999999  7.9800851999999995  0.0000000000000000
  0.0000000000000000  9.9751064999999990  3.9900425999999998
  0.0000000000000000  7.9800851999999995  5.9850638999999992
  1.9950212999999999  7.9800851999999995  3.9900425999999998
  0.0000000000000000  9.9751064999999990  7.9800851999999995
  0.0000000000000000  7.9800851999999995  9.9751064999999990
  1.9950212999999999  7.9800851999999995  7.9800851999999995
  3.9900425999999998  1.9950212999999999  0.0000000000000000
  3.9900425999999998  0.0000000000000000  1.9950212999999999
  5.9850638999999992  0.0000000000000000  0.0000000000000000
  3.9900425999999998  1.9950212999999999  3.9900425999999998
  3.9900425999999998  0.0000000000000000  5.9850638999999992
  5.9850638999999992  0.0000000000000000  3.9900425999999998
  3.9900425999999998  1.9950212999999999  7.9800851999999995
  3.9900425999999998  0.0000000000000000  9.9751064999999990
  5.9850638999999992  0.0000000000000000  7.9800851999999995
  3.9900425999999998  5.9850638999999992  0.0000000000000000
  3.9900425999999998  3.9900425999999998  1.9950212999999999
  5.9850638999999992  3.9900425999999998  0.0000000000000000
  3.9900425999999998  5.9850638999999992  3.9900425999999998
  3.9900425999999998  3.9900425999999998  5.9850638999999992
  5.9850638999999992  3.9900425999999998  3.9900425999999998
  3.9900425999999998  5.9850638999999992  7.9800851999999995
  3.9900425999999998  3.9900425999999998  9.9751064999999990
  5.9850638999999992  3.9900425999999998  7.9800851999999995
  3.9900425999999998  9.9751064999999990  0.0000000000000000
  3.9900425999999998  7.9800851999999995  1.9950212999999999
  5.9850638999999992  7.9800851999999995  0.0000000000000000
  3.9900425999999998  9.9751064999999990  3.9900425999999998
  3.9900425999999998  7.9800851999999995  5.9850638999999992
  5.9850638999999992  7.9800851999999995  3.9900425999999998
  3.9900425999999998  9.9751064999999990  7.9800851999999995
  3.9900425999999998  7.9800851999999995  9.9751064999999990
  5.9850638999999992  7.9800851999999995  7.9800851999999995
  7.9800851999999995  1.9950212999999999  0.0000000000000000
  7.9800851999999995  0.0000000000000000  1.9950212999999999
  9.9751064999999990  0.0000000000000000  0.0000000000000000
  7.9800851999999995  1.9950212999999999  3.9900425999999998
  7.9800851999999995  0.0000000000000000  5.9850638999999992
  9.9751064999999990  0.0000000000000000  3.9900425999999998
  7.9800851999999995  1.9950212999999999  7.9800851999999995
  7.9800851999999995  0.0000000000000000  9.9751064999999990
  9.9751064999999990  0.0000000000000000  7.9800851999999995
  7.9800851999999995  5.9850638999999992  0.0000000000000000
  7.9800851999999995  3.9900425999999998  1.9950212999999999
  9.9751064999999990  3.9900425999999998  0.0000000000000000
  7.9800851999999995  5.9850638999999992  3.9900425999999998
  7.9800851999999995  3.9900425999999998  5.9850638999999992
  9.9751064999999990  3.9900425999999998  3.9900425999999998
  7.9800851999999995  5.9850638999999992  7.9800851999999995
  7.9800851999999995  3.9900425999999998  9.9751064999999990
  9.9751064999999990  3.9900425999999998  7.9800851999999995
  7.9800851999999995  9.9751064999999990  0.0000000000000000
  7.9800851999999995  7.9800851999999995  1.9950212999999999
  9.9751064999999990  7.9800851999999995  0.0000000000000000
  7.9800851999999995  9.9751064999999990  3.9900425999999998
  7.9800851999999995  7.9800851999999995  5.9850638999999992
  9.9751064999999990  7.9800851999999995  3.9900425999999998
  7.9800851999999995  9.9751064999999990  7.9800851999999995
  7.9800851999999995  7.9800851999999995  9.9751064999999990
  9.9751064999999990  7.9800851999999995  7.9800851999999995
  1.9950212999999999  1.9950212999999999  1.9950212999999999
  1.9950212999999999  1.9950212999999999  5.9850638999999992
  1.9950212999999999  1.9950212999999999  9.9751064999999990
  1.9950212999999999  5.9850638999999992  1.9950212999999999
  1.9950212999999999  5.9850638999999992  5.9850638999999992
  1.9950212999999999  5.9850638999999992  9.9751064999999990
  1.9950212999999999  9.9751064999999990  1.9950212999999999
  1.9950212999999999  9.9751064999999990  5.9850638999999992
  1.9950212999999999  9.9751064999999990  9.9751064999999990
  5.9850638999999992  1.9950212999999999  1.9950212999999999
  5.9850638999999992  1.9950212999999999  5.9850638999999992
  5.9850638999999992  1.9950212999999999  9.9751064999999990
  5.9850638999999992  5.9850638999999992  1.9950212999999999
  5.9850638999999992  5.9850638999999992  5.9850638999999992
  5.9850638999999992  5.9850638999999992  9.9751064999999990
  5.9850638999999992  9.9751064999999990  1.9950212999999999
  5.9850638999999992  9.9751064999999990  5.9850638999999992
  5.9850638999999992  9.9751064999999990  9.9751064999999990
  9.9751064999999990  1.9950212999999999  1.9950212999999999
  9.9751064999999990  1.9950212999999999  5.9850638999999992
  9.9751064999999990  1.9950212999999999  9.9751064999999990
  9.9751064999999990  5.9850638999999992  1.9950212999999999
  9.9751064999999990  5.9850638999999992  5.9850638999999992
  9.9751064999999990  5.9850638999999992  9.9751064999999990
  9.9751064999999990  9.9751064999999990  1.9950212999999999
  9.9751064999999990  9.9751064999999990  5.9850638999999992
  9.9751064999999990  9.9751064999999990  9.9751064999999990
  0.0000000000000000  0.0000000000000000  0.0000000000000000
  0.0000000000000000  0.0000000000000000  3.9900425999999998
  0.0000000000000000  0.0000000000000000  7.9800851999999995
  0.0000000000000000  3.9900425999999998  0.0000000000000000
  0.0000000000000000  3.9900425999999998  3.9900425999999998
  0.0000000000000000  3.9900425999999998  7.9800851999999995
  0.0000000000000000  7.9800851999999995  0.0000000000000000
  0.0000000000000000  7.9800851999999995  3.9900425999999998
  0.0000000000000000  7.9800851999999995  7.9800851999999995
  3.9900425999999998  0.0000000000000000  0.0000000000000000
  3.9900425999999998  0.0000000000000000  3.9900425999999998
  3.9900425999999998  0.0000000000000000  7.9800851999999995
  3.9900425999999998  3.9900425999999998  0.0000000000000000
  3.9900425999999998  3.9900425999999998  3.9900425999999998
  3.9900425999999998  3.9900425999999998  7.9800851999999995
  3.9900425999999998  7.9800851999999995  0.0000000000000000
  3.9900425999999998  7.9800851999999995  3.9900425999999998
  3.9900425999999998  7.9800851999999995  7.9800851999999995
  7.9800851999999995  0.0000000000000000  0.0000000000000000
  7.9800851999999995  0.0000000000000000  3.9900425999999998
  7.9800851999999995  0.0000000000000000  7.9800851999999995
  7.9800851999999995  3.9900425999999998  0.0000000000000000
  7.9800851999999995  3.9900425999999998  3.9900425999999998
  7.9800851999999995  3.9900425999999998  7.9800851999999995
  7.9800851999999995  7.9800851999999995  0.0000000000000000
  7.9800851999999995  7.9800851999999995  3.9900425999999998
  7.9800851999999995  7.9800851999999995  7.9800851999999995
