Na Cl Na Cl Na Cl Na Cl
 1.0000000000000000
     5.6020011799999994    0.0000000000000000    0.0000000000000000
     0.0000000000000000    5.6020011799999994    0.0000000000000000
     0.0000000000000000    0.0000000000000000    5.6020011799999994
 Na  Cl  Na  Cl  Na  Cl  Na  Cl 
   1   1   1   1   1   1   1   1
Direct
  0.0000000000000000  0.0000000000000000  0.0000000000000000
  0.5000000000000000  0.0000000000000000  0.0000000000000000
  0.0000000000000000  0.5000000000000000  0.5000000000000000
  0.5000000000000000  0.5000000000000000  0.5000000000000000
  0.5000000000000000  0.0000000000000000  0.5000000000000000
  0.0000000000000000  0.0000000000000000  0.5000000000000000
  0.5000000000000000  0.5000000000000000  0.0000000000000000
  0.0000000000000000  0.5000000000000000  0.0000000000000000
