Si 
 1.0000000000000000
     5.4345372099999993    0.0000000000000000    0.0000000000000000
     0.0000000000000000    5.4345372099999993    0.0000000000000000
     0.0000000000000000    0.0000000000000000    5.4345372099999993
 Si 
   8
Cartesian
  2.7172686049999997  0.0000000000000000  0.0000000000000000
  1.3586343024999998  1.3586343024999998  4.0759029074999997
  2.7172686049999997  2.7172686049999997  2.7172686049999997
  1.3586343024999998  4.0759029074999997  1.3586343024999998
  0.0000000000000000  0.0000000000000000  2.7172686049999997
  4.0759029074999997  1.3586343024999998  1.3586343024999998
  0.0000000000000000  2.7172686049999997  0.0000000000000000
  4.0759029074999997  4.0759029074999997  4.0759029074999997
