Na Cl 
 1.0000000000000000
    11.2040023599999987    0.0000000000000000    0.0000000000000000
     0.0000000000000000   11.2040023599999987    0.0000000000000000
     0.0000000000000000    0.0000000000000000   11.2040023599999987
 Na  Cl 
  32  32
Cartesian
  0.0000000000000000  0.0000000000000000  0.0000000000000000
  2.8010005899999992  2.8010005899999992  0.0000000000000000
  2.8010005899999992  0.0000000000000000  2.8010005899999992
  0.0000000000000000  2.8010005899999992  2.8010005899999992
  0.0000000000000000  0.0000000000000000  5.6020011799999985
  2.8010005899999992  2.8010005899999992  5.6020011799999985
  2.8010005899999992  0.0000000000000000  8.4030017699999995
  0.0000000000000000  2.8010005899999992  8.4030017699999995
  0.0000000000000000  5.6020011799999985  0.0000000000000000
  2.8010005899999992  8.4030017699999995  0.0000000000000000
  2.8010005899999992  5.6020011799999985  2.8010005899999992
  0.0000000000000000  8.4030017699999995  2.8010005899999992
  0.0000000000000000  5.6020011799999985  5.6020011799999985
  2.8010005899999992  8.4030017699999995  5.6020011799999985
  2.8010005899999992  5.6020011799999985  8.4030017699999995
  0.0000000000000000  8.4030017699999995  8.4030017699999995
  5.6020011799999985  0.0000000000000000  0.0000000000000000
  8.4030017699999995  2.8010005899999992  0.0000000000000000
  8.4030017699999995  0.0000000000000000  2.8010005899999992
  5.6020011799999985  2.8010005899999992  2.8010005899999992
  5.6020011799999985  0.0000000000000000  5.6020011799999985
  8.4030017699999995  2.8010005899999992  5.6020011799999985
  8.4030017699999995  0.0000000000000000  8.4030017699999995
  5.6020011799999985  2.8010005899999992  8.4030017699999995
  5.6020011799999985  5.6020011799999985  0.0000000000000000
  8.4030017699999995  8.4030017699999995  0.0000000000000000
  8.4030017699999995  5.6020011799999985  2.8010005899999992
  5.6020011799999985  8.4030017699999995  2.8010005899999992
  5.6020011799999985  5.6020011799999985  5.6020011799999985
  8.4030017699999995  8.4030017699999995  5.6020011799999985
  8.4030017699999995  5.6020011799999985  8.4030017699999995
  5.6020011799999985  8.4030017699999995  8.4030017699999995
  2.8110005899999990  2.8010005899999992  2.8010005899999992
  0.0000000000000004  0.0000000000000004  2.8010005899999992
  0.0000000000000004  2.8010005899999992  0.0000000000000004
  2.8010005899999992  0.0000000000000004  0.0000000000000004
  2.8010005899999992  2.8010005899999992  8.4030017699999995
  0.0000000000000004  0.0000000000000004  8.4030017699999995
  0.0000000000000004  2.8010005899999992  5.6020011799999985
  2.8010005899999992  0.0000000000000004  5.6020011799999985
  2.8010005899999992  8.4030017699999995  2.8010005899999992
  0.0000000000000004  5.6020011799999985  2.8010005899999992
  0.0000000000000004  8.4030017699999995  0.0000000000000004
  2.8010005899999992  5.6020011799999985  0.0000000000000004
  2.8010005899999992  8.4030017699999995  8.4030017699999995
  0.0000000000000004  5.6020011799999985  8.4030017699999995
  0.0000000000000004  8.4030017699999995  5.6020011799999985
  2.8010005899999992  5.6020011799999985  5.6020011799999985
  8.4030017699999995  2.8010005899999992  2.8010005899999992
  5.6020011799999985  0.0000000000000004  2.8010005899999992
  5.6020011799999985  2.8010005899999992  0.0000000000000004
  8.4030017699999995  0.0000000000000004  0.0000000000000004
  8.4030017699999995  2.8010005899999992  8.4030017699999995
  5.6020011799999985  0.0000000000000004  8.4030017699999995
  5.6020011799999985  2.8010005899999992  5.6020011799999985
  8.4030017699999995  0.0000000000000004  5.6020011799999985
  8.4030017699999995  8.4030017699999995  2.8010005899999992
  5.6020011799999985  5.6020011799999985  2.8010005899999992
  5.6020011799999985  8.4030017699999995  0.0000000000000004
  8.4030017699999995  5.6020011799999985  0.0000000000000004
  8.4030017699999995  8.4030017699999995  8.4030017699999995
  5.6020011799999985  5.6020011799999985  8.4030017699999995
  5.6020011799999985  8.4030017699999995  5.6020011799999985
  8.4030017699999995  5.6020011799999985  5.6020011799999985
