INCAR created by Atomic Simulation Environment
 ENCUT = 341.213600
 SIGMA = 0.020000
 EDIFF = 1.00e-08
 GGA = PS
 PREC = Accurate
 IALGO = 38
 IBRION = -1
 ISMEAR = 0
 NELMIN = 5
 ADDGRID = .TRUE.
 LCHARG = .FALSE.
 LEPSILON = .TRUE.
 LWAVE = .FALSE.
 LREAL = .FALSE.
