Na Cl 
 1.0000000000000000
     0.0000000000000000    2.8010005899999997    2.8010005899999997
     2.8010005899999997    0.0000000000000000    2.8010005899999997
     2.8010005899999997    2.8010005899999997    0.0000000000000000
 Na  Cl 
   1   1
Cartesian
  0.0000000000000000  0.0000000000000000  0.0000000000000000
  2.8010005899999997  2.8010005899999997  2.8010005899999997
