ADDGRID = True
EDIFF = 1e-08
ENCUT = 318
GGA = Ps
IALGO = 38
IBRION = -1
ISMEAR = 0
LCHARG = False
LREAL = False
LWAVE = False
NELMIN = 5
NPAR = 4
PREC = Accurate
SIGMA = 0.02
