Si 
 1.0000000000000000
    10.8926831199999992    0.0000000000000000    0.0000000000000000
     0.0000000000000000   10.8926831199999992    0.0000000000000000
     0.0000000000000000    0.0000000000000000   10.8926831199999992
 Si 
  64
Cartesian
  2.7331707799999991  2.7231707799999993  2.7231707799999993
  4.0847561699999995  4.0847561699999995  4.0847561699999995
  0.0000000000000004  0.0000000000000004  2.7231707799999993
  1.3615853899999992  1.3615853899999992  4.0847561699999995
  0.0000000000000004  2.7231707799999993  0.0000000000000004
  1.3615853899999992  4.0847561699999995  1.3615853899999992
  2.7231707799999993  0.0000000000000004  0.0000000000000004
  4.0847561699999995  1.3615853899999992  1.3615853899999992
  2.7231707799999993  2.7231707799999993  8.1695123399999989
  4.0847561699999995  4.0847561699999995  9.5310977299999990
  0.0000000000000004  0.0000000000000004  8.1695123399999989
  1.3615853899999992  1.3615853899999992  9.5310977299999990
  0.0000000000000004  2.7231707799999993  5.4463415599999987
  1.3615853899999992  4.0847561699999995  6.8079269499999979
  2.7231707799999993  0.0000000000000004  5.4463415599999987
  4.0847561699999995  1.3615853899999992  6.8079269499999979
  2.7231707799999993  8.1695123399999989  2.7231707799999993
  4.0847561699999995  9.5310977299999990  4.0847561699999995
  0.0000000000000004  5.4463415599999987  2.7231707799999993
  1.3615853899999992  6.8079269499999979  4.0847561699999995
  0.0000000000000004  8.1695123399999989  0.0000000000000004
  1.3615853899999992  9.5310977299999990  1.3615853899999992
  2.7231707799999993  5.4463415599999987  0.0000000000000004
  4.0847561699999995  6.8079269499999979  1.3615853899999992
  2.7231707799999993  8.1695123399999989  8.1695123399999989
  4.0847561699999995  9.5310977299999990  9.5310977299999990
  0.0000000000000004  5.4463415599999987  8.1695123399999989
  1.3615853899999992  6.8079269499999979  9.5310977299999990
  0.0000000000000004  8.1695123399999989  5.4463415599999987
  1.3615853899999992  9.5310977299999990  6.8079269499999979
  2.7231707799999993  5.4463415599999987  5.4463415599999987
  4.0847561699999995  6.8079269499999979  6.8079269499999979
  8.1695123399999989  2.7231707799999993  2.7231707799999993
  9.5310977299999990  4.0847561699999995  4.0847561699999995
  5.4463415599999987  0.0000000000000004  2.7231707799999993
  6.8079269499999979  1.3615853899999992  4.0847561699999995
  5.4463415599999987  2.7231707799999993  0.0000000000000004
  6.8079269499999979  4.0847561699999995  1.3615853899999992
  8.1695123399999989  0.0000000000000004  0.0000000000000004
  9.5310977299999990  1.3615853899999992  1.3615853899999992
  8.1695123399999989  2.7231707799999993  8.1695123399999989
  9.5310977299999990  4.0847561699999995  9.5310977299999990
  5.4463415599999987  0.0000000000000004  8.1695123399999989
  6.8079269499999979  1.3615853899999992  9.5310977299999990
  5.4463415599999987  2.7231707799999993  5.4463415599999987
  6.8079269499999979  4.0847561699999995  6.8079269499999979
  8.1695123399999989  0.0000000000000004  5.4463415599999987
  9.5310977299999990  1.3615853899999992  6.8079269499999979
  8.1695123399999989  8.1695123399999989  2.7231707799999993
  9.5310977299999990  9.5310977299999990  4.0847561699999995
  5.4463415599999987  5.4463415599999987  2.7231707799999993
  6.8079269499999979  6.8079269499999979  4.0847561699999995
  5.4463415599999987  8.1695123399999989  0.0000000000000004
  6.8079269499999979  9.5310977299999990  1.3615853899999992
  8.1695123399999989  5.4463415599999987  0.0000000000000004
  9.5310977299999990  6.8079269499999979  1.3615853899999992
  8.1695123399999989  8.1695123399999989  8.1695123399999989
  9.5310977299999990  9.5310977299999990  9.5310977299999990
  5.4463415599999987  5.4463415599999987  8.1695123399999989
  6.8079269499999979  6.8079269499999979  9.5310977299999990
  5.4463415599999987  8.1695123399999989  5.4463415599999987
  6.8079269499999979  9.5310977299999990  6.8079269499999979
  8.1695123399999989  5.4463415599999987  5.4463415599999987
  9.5310977299999990  6.8079269499999979  6.8079269499999979
