Si 
 1.0000000000000000
     0.0000000000000000    2.7231707799999998    2.7231707799999998
     2.7231707799999998    0.0000000000000000    2.7231707799999998
     2.7231707799999998    2.7231707799999998   -0.0000000000000000
 Si 
   2
Cartesian
  2.7231707799999998  2.7231707799999998  2.7231707799999998
  4.0847561699999995  4.0847561699999995  4.0847561699999995
